
Gurobi 9.5.0 (linux64) logging started Fri Dec  8 16:02:03 2023

Set parameter LogFile to value "/lustre1/scratch/348/vsc34888/JointResearch/05.Models/06.Benchmarking/G.Representative_days_based_on_Line_Benefit_NN_OC_fy_2/RTS24_mod1_ByStages_nc300/openStarNet_RTS24_mod1_ByStages_nc300.log"
Set parameter Method to value 2
Set parameter MIPFocus to value 1
Set parameter Presolve to value 2
Set parameter RINS to value 100
Set parameter MIPGap to value 0.01
Set parameter Threads to value 36
Set parameter TimeLimit to value 259200
Set parameter IterationLimit to value 760000000
Gurobi Optimizer version 9.5.0 build v9.5.0rc5 (linux64)
Thread count: 36 physical cores, 36 logical processors, using up to 36 threads
Optimize a model with 106503 rows, 71906 columns and 290409 nonzeros
Model fingerprint: 0x8d0070b0
Variable types: 71885 continuous, 21 integer (21 binary)
Coefficient statistics:
  Matrix range     [2e-03, 3e+02]
  Objective range  [1e+00, 1e+00]
  Bounds range     [3e-05, 3e+00]
  RHS range        [3e-05, 3e+00]
Presolve removed 63437 rows and 36485 columns
Presolve time: 0.40s
Presolved: 43066 rows, 35421 columns, 155548 nonzeros
Variable types: 35400 continuous, 21 integer (21 binary)
Root relaxation presolved: 43066 rows, 35421 columns, 155548 nonzeros

Root barrier log...

Ordering time: 0.01s

Barrier statistics:
 Dense cols : 21
 AA' NZ     : 2.889e+05
 Factor NZ  : 8.418e+05 (roughly 40 MB of memory)
 Factor Ops : 1.929e+07 (less than 1 second per iteration)
 Threads    : 35

                  Objective                Residual
Iter       Primal          Dual         Primal    Dual     Compl     Time
   0   6.56727654e+05 -6.77526899e+07  5.22e+00 5.24e+01  1.88e+03     1s
   1   1.02283198e+05 -1.73256232e+07  6.75e-01 7.01e-09  2.59e+02     1s
   2   4.33482896e+04 -8.22687015e+06  1.90e-01 2.47e-09  9.73e+01     1s
   3   2.04331509e+04 -9.31612230e+05  6.59e-03 3.28e-09  9.61e+00     1s
   4   1.15340920e+04 -1.22260699e+05  3.08e-04 3.31e-10  1.33e+00     1s
   5   3.15879697e+03 -2.38558349e+04  6.02e-05 5.56e-11  2.69e-01     1s
   6   6.95688876e+02 -5.56548548e+03  5.59e-06 1.32e-11  6.24e-02     1s
   7   4.04955359e+02 -1.53500961e+03  1.61e-06 3.68e-12  1.93e-02     1s
   8   2.60180964e+02 -7.95436913e+02  6.87e-07 1.90e-12  1.05e-02     1s
   9   1.62807185e+02 -2.91633723e+02  2.95e-07 7.14e-13  4.53e-03     1s
  10   1.17150538e+02 -9.50094514e+01  1.46e-07 4.55e-13  2.11e-03     1s
  11   8.41800891e+01 -6.07410997e+00  6.22e-08 2.27e-13  8.99e-04     1s
  12   7.27707524e+01  2.44379459e+01  3.59e-08 2.27e-13  4.82e-04     1s
  13   7.05931365e+01  3.46858169e+01  3.10e-08 2.27e-13  3.58e-04     1s
  14   6.58611103e+01  3.96090178e+01  2.06e-08 2.27e-13  2.62e-04     1s
  15   6.47352098e+01  4.40200633e+01  1.81e-08 2.27e-13  2.06e-04     1s
  16   6.24829598e+01  4.69467827e+01  1.32e-08 2.27e-13  1.55e-04     1s
  17   6.15276798e+01  4.93107729e+01  1.10e-08 2.27e-13  1.22e-04     1s
  18   6.01913411e+01  5.18255521e+01  8.05e-09 2.27e-13  8.34e-05     1s
  19   5.95411738e+01  5.30005843e+01  6.52e-09 2.27e-13  6.52e-05     1s
  20   5.84607677e+01  5.38366785e+01  4.29e-09 2.27e-13  4.61e-05     1s
  21   5.79191382e+01  5.41812069e+01  3.09e-09 2.27e-13  3.73e-05     1s
  22   5.77463618e+01  5.45409128e+01  2.62e-09 2.27e-13  3.19e-05     1s
  23   5.76282220e+01  5.48475355e+01  2.34e-09 4.55e-13  2.77e-05     1s
  24   5.74202193e+01  5.55427536e+01  1.80e-09 2.27e-13  1.87e-05     1s
  25   5.72189039e+01  5.56363654e+01  1.31e-09 2.27e-13  1.58e-05     1s
  26   5.70527725e+01  5.58489847e+01  8.82e-10 4.55e-13  1.20e-05     1s
  27   5.69387279e+01  5.61463213e+01  5.90e-10 2.27e-13  7.90e-06     1s
  28   5.68442403e+01  5.64486631e+01  3.50e-10 4.55e-13  3.94e-06     1s
  29   5.67926803e+01  5.65275129e+01  2.26e-10 4.55e-13  2.64e-06     1s
  30   5.67820993e+01  5.65820460e+01  2.01e-10 2.27e-13  1.99e-06     1s
  31   5.67738522e+01  5.65854313e+01  1.81e-10 2.27e-13  1.88e-06     1s
  32   5.67556477e+01  5.66079566e+01  1.37e-10 2.27e-13  1.47e-06     1s
  33   5.67506716e+01  5.66248265e+01  1.26e-10 4.55e-13  1.25e-06     1s
  34   5.67077988e+01  5.66513323e+01  3.52e-10 2.27e-13  5.63e-07     1s
  35   5.67019287e+01  5.66710890e+01  1.27e-10 4.55e-13  3.07e-07     1s
  36   5.67001810e+01  5.66851404e+01  1.24e-10 2.27e-13  1.50e-07     1s
  37   5.66995236e+01  5.66900087e+01  8.85e-11 2.27e-13  9.48e-08     1s
  38   5.66990009e+01  5.66949671e+01  4.62e-11 4.55e-13  4.02e-08     1s
  39   5.66988026e+01  5.66961900e+01  4.09e-11 2.27e-13  2.60e-08     1s
  40   5.66986200e+01  5.66967301e+01  6.45e-11 2.27e-13  1.88e-08     1s
  41   5.66986038e+01  5.66970491e+01  5.33e-11 2.27e-13  1.55e-08     1s
  42   5.66985460e+01  5.66971792e+01  8.63e-11 2.27e-13  1.36e-08     2s
  43   5.66985262e+01  5.66974076e+01  3.63e-10 2.27e-13  1.11e-08     2s
  44   5.66985163e+01  5.66974943e+01  4.21e-10 5.12e-13  1.02e-08     2s
  45   5.66984998e+01  5.66977773e+01  6.39e-10 5.51e-13  7.20e-09     2s
  46   5.66984993e+01  5.66978560e+01  1.57e-09 2.27e-13  6.41e-09     2s
  47   5.66984987e+01  5.66980227e+01  1.53e-09 1.09e-11  4.74e-09     2s
  48   5.66985015e+01  5.66981081e+01  3.49e-09 1.86e-11  3.92e-09     2s
  49   5.66984973e+01  5.66984664e+01  2.07e-09 1.35e-10  3.08e-10     2s
  50   5.66984923e+01  5.66984814e+01  2.86e-10 5.55e-11  1.08e-10     2s
  51   5.66984921e+01  5.66984839e+01  5.43e-11 4.56e-11  8.20e-11     2s
  52   5.66984921e+01  5.66984919e+01  2.00e-10 1.13e-12  1.61e-12     2s

Barrier solved model in 52 iterations and 1.72 seconds (1.56 work units)
Optimal objective 5.66984921e+01


Root relaxation: objective 5.669849e+01, 6187 iterations, 1.54 seconds (1.32 work units)

    Nodes    |    Current Node    |     Objective Bounds      |     Work
 Expl Unexpl |  Obj  Depth IntInf | Incumbent    BestBd   Gap | It/Node Time

     0     0   56.69849    0   16          -   56.69849      -     -    2s
H    0     0                     107.7950948   56.69849  47.4%     -    3s
     0     0   57.77443    0   13  107.79509   57.77443  46.4%     -    5s
H    0     0                     103.8930984   57.77443  44.4%     -    6s
     0     0   57.82417    0   12  103.89310   57.82417  44.3%     -    6s
     0     0   57.82522    0   12  103.89310   57.82522  44.3%     -    6s
H    0     0                      97.4615599   57.82522  40.7%     -    7s
     0     0   58.04573    0   16   97.46156   58.04573  40.4%     -    8s
H    0     0                      94.0256971   58.07456  38.2%     -    9s
     0     0   58.07456    0   13   94.02570   58.07456  38.2%     -    9s
     0     0   58.07616    0   16   94.02570   58.07616  38.2%     -    9s
     0     0   58.07646    0   16   94.02570   58.07646  38.2%     -    9s
     0     0   58.07670    0   16   94.02570   58.07670  38.2%     -   10s
     0     0   58.07683    0   16   94.02570   58.07683  38.2%     -   10s
     0     0   58.26941    0   12   94.02570   58.26941  38.0%     -   11s
     0     0   58.30137    0   11   94.02570   58.30137  38.0%     -   12s
     0     0   58.30290    0   11   94.02570   58.30290  38.0%     -   12s
H    0     0                      86.5109768   58.30290  32.6%     -   13s
     0     0   58.33317    0   10   86.51098   58.33317  32.6%     -   13s
     0     0   58.33894    0   10   86.51098   58.33894  32.6%     -   14s
     0     0   58.34086    0   10   86.51098   58.34086  32.6%     -   14s
     0     0   58.34319    0   10   86.51098   58.34319  32.6%     -   14s
     0     0   58.34322    0   10   86.51098   58.34322  32.6%     -   14s
     0     0   58.34395    0   11   86.51098   58.34395  32.6%     -   17s
H    0     0                      76.6359360   58.34395  23.9%     -   47s
     0     2   58.34395    0   11   76.63594   58.34395  23.9%     -   48s
     3     8   59.85082    2   15   76.63594   58.54521  23.6%  3254   51s
    31    60   62.11285    5   16   76.63594   60.97887  20.4%  2301   55s
    99   124   64.45357    7   14   76.63594   61.74800  19.4%  2208   88s
H  103   124                      76.4744056   61.74800  19.3%  2206   88s
   135   142   66.97421    8   13   76.47441   61.74800  19.3%  2024  128s
H  137   142                      76.4321788   61.74800  19.2%  2014  128s
   207   165   73.05409    9   12   76.43218   62.10879  18.7%  1851  131s
   261   176   74.63578   10   11   76.43218   62.10879  18.7%  1710  155s
   361   210     cutoff   10        76.43218   62.54944  18.2%  1635  160s
   500   222   67.42001    8   13   76.43218   62.57401  18.1%  1560  348s
   554   236   70.95192    9   12   76.43218   62.57401  18.1%  1522  351s
   637   248   74.92715   10   11   76.43218   62.57401  18.1%  1485  355s
   853   274     cutoff   10        76.43218   63.12650  17.4%  1390  360s
  1085   305   69.96678    9   12   76.43218   63.12650  17.4%  1294  365s
  1194   294   73.15515   10   11   76.43218   63.12650  17.4%  1276  390s
  1441   286     cutoff   11        76.43218   63.12650  17.4%  1201  415s
  1676   283   74.57207   13    8   76.43218   63.12650  17.4%  1175  421s
  1851   254   76.04033   16    4   76.43218   67.22751  12.0%  1150  425s
  2256   194   73.74903   10   11   76.43218   68.40386  10.5%  1084  432s
  2457   134     cutoff   11        76.43218   69.09648  9.60%  1061  435s
  2693    81   71.43757    8   13   76.43218   71.43757  6.53%  1021  513s
  2873    29     cutoff    9        76.43218   71.65924  6.24%   992  516s

Cutting planes:
  Implied bound: 23
  MIR: 1655
  Relax-and-lift: 159

Explored 3066 nodes (2972909 simplex iterations) in 518.02 seconds (1019.81 work units)
Thread count was 36 (of 36 available processors)

Solution count 8: 76.4322 76.4744 76.6359 ... 107.795

Optimal solution found (tolerance 1.00e-02)
Best objective 7.643217877472e+01, best bound 7.643217877472e+01, gap 0.0000%

Gurobi 9.5.0 (linux64) logging started Fri Dec  8 16:11:20 2023

Set parameter LogFile to value "/lustre1/scratch/348/vsc34888/JointResearch/05.Models/06.Benchmarking/G.Representative_days_based_on_Line_Benefit_NN_OC_fy_2/RTS24_mod1_ByStages_nc300/openStarNet_RTS24_mod1_ByStages_nc300.log"
Set parameter Method to value 2
Set parameter MIPFocus to value 1
Set parameter Presolve to value 2
Set parameter RINS to value 100
Set parameter MIPGap to value 0.01
Set parameter Threads to value 36
Set parameter TimeLimit to value 259200
Set parameter IterationLimit to value 760000000
No parameters matching 'relax_integrality' found
Gurobi Optimizer version 9.5.0 build v9.5.0rc5 (linux64)
Thread count: 36 physical cores, 36 logical processors, using up to 36 threads
Optimize a model with 106503 rows, 71885 columns and 265188 nonzeros
Model fingerprint: 0x85aad4fc
Coefficient statistics:
  Matrix range     [2e-03, 3e+02]
  Objective range  [1e+00, 1e+00]
  Bounds range     [3e-05, 3e+00]
  RHS range        [3e-05, 2e+01]
Presolve removed 88965 rows and 40341 columns
Presolve time: 0.13s
Presolved: 17538 rows, 31872 columns, 77950 nonzeros

Ordering time: 0.00s

Barrier statistics:
 AA' NZ     : 4.427e+04
 Factor NZ  : 1.451e+05 (roughly 16 MB of memory)
 Factor Ops : 1.823e+06 (less than 1 second per iteration)
 Threads    : 36

                  Objective                Residual
Iter       Primal          Dual         Primal    Dual     Compl     Time
   0   3.08380639e+06 -3.69142114e+07  4.10e+01 4.81e+01  9.52e+03     0s
   1   2.10302376e+05 -2.59142032e+07  2.32e+00 1.12e-12  9.24e+02     0s
   2   5.24701584e+04 -6.04699181e+06  3.96e-01 1.68e-12  1.58e+02     0s
   3   2.80102751e+04 -9.97812726e+05  5.00e-02 1.07e-12  2.14e+01     0s
   4   1.60805395e+04 -2.39821539e+05  3.78e-03 8.87e-13  4.82e+00     0s
   5   7.86990003e+03 -6.81418492e+04  5.69e-04 4.68e-13  1.42e+00     0s
   6   2.48622165e+03 -2.07300421e+04  1.00e-04 2.52e-13  4.33e-01     0s
   7   6.46158064e+02 -3.98784899e+03  7.92e-06 1.41e-13  8.64e-02     0s
   8   3.79419086e+02 -1.33391991e+03  1.30e-06 1.14e-13  3.19e-02     0s
   9   2.19592061e+02 -3.63927429e+02  2.95e-07 2.27e-13  1.09e-02     0s
  10   1.55541006e+02 -1.17656387e+02  1.47e-07 2.27e-13  5.09e-03     0s
  11   1.01472419e+02  1.54785263e+01  3.60e-08 2.27e-13  1.60e-03     0s
  12   8.35101200e+01  6.77471690e+01  8.66e-09 1.14e-13  2.94e-04     0s
  13   7.80679415e+01  7.37594514e+01  1.79e-09 2.27e-13  8.03e-05     0s
  14   7.71120981e+01  7.54836803e+01  7.06e-10 2.27e-13  3.03e-05     0s
  15   7.66224943e+01  7.60991141e+01  2.11e-10 1.14e-13  9.75e-06     0s
  16   7.64871528e+01  7.62939195e+01  7.40e-10 2.27e-13  3.60e-06     0s
  17   7.64438278e+01  7.63928171e+01  1.46e-09 2.27e-13  9.51e-07     0s
  18   7.64327408e+01  7.64304887e+01  6.29e-11 2.27e-13  4.20e-08     0s
  19   7.64321937e+01  7.64321578e+01  3.33e-09 1.14e-13  6.69e-10     0s
  20   7.64321788e+01  7.64321788e+01  4.81e-10 2.27e-13  6.69e-13     0s
  21   7.64321788e+01  7.64321788e+01  6.22e-13 2.27e-13  1.09e-17     0s

Barrier solved model in 21 iterations and 0.37 seconds (0.33 work units)
Optimal objective 7.64321788e+01

Crossover log...

    3887 DPushes remaining with DInf 0.0000000e+00                 0s
       0 DPushes remaining with DInf 0.0000000e+00                 0s

    1012 PPushes remaining with PInf 0.0000000e+00                 0s
       0 PPushes remaining with PInf 0.0000000e+00                 0s

  Push phase complete: Pinf 0.0000000e+00, Dinf 1.1409133e-13      0s

Iteration    Objective       Primal Inf.    Dual Inf.      Time
    1057    7.6432179e+01   0.000000e+00   0.000000e+00      0s

Use crossover to convert LP symmetric solution to basic solution...
Crossover log...

       0 DPushes remaining with DInf 0.0000000e+00                 0s

     758 PPushes remaining with PInf 0.0000000e+00                 0s
       0 PPushes remaining with PInf 0.0000000e+00                 0s

  Push phase complete: Pinf 0.0000000e+00, Dinf 1.1451607e-13      0s

Iteration    Objective       Primal Inf.    Dual Inf.      Time
    1824    7.6432179e+01   0.000000e+00   0.000000e+00      1s

Solved in 1824 iterations and 0.56 seconds (0.44 work units)
Optimal objective  7.643217877e+01

Gurobi 9.5.0 (linux64) logging started Fri Dec  8 20:43:26 2023

Set parameter LogFile to value "/lustre1/scratch/348/vsc34888/JointResearch/05.Models/06.Benchmarking/G.Representative_days_based_on_Line_Benefit_NN_OC_fy_2/RTS24_mod1_ByStages_nc300/openStarNet_RTS24_mod1_ByStages_nc300.log"
Set parameter Method to value 2
Set parameter MIPFocus to value 1
Set parameter Presolve to value 2
Set parameter RINS to value 100
Set parameter MIPGap to value 0.01
Set parameter Threads to value 36
Set parameter TimeLimit to value 259200
Set parameter IterationLimit to value 760000000
Gurobi Optimizer version 9.5.0 build v9.5.0rc5 (linux64)
Thread count: 36 physical cores, 36 logical processors, using up to 36 threads
Optimize a model with 106858 rows, 72097 columns and 291226 nonzeros
Model fingerprint: 0x28e2694c
Variable types: 72076 continuous, 21 integer (21 binary)
Coefficient statistics:
  Matrix range     [1e-03, 7e+02]
  Objective range  [1e+00, 1e+00]
  Bounds range     [3e-05, 3e+00]
  RHS range        [3e-05, 3e+00]
Presolve removed 63647 rows and 36556 columns
Presolve time: 0.41s
Presolved: 43211 rows, 35541 columns, 156071 nonzeros
Variable types: 35520 continuous, 21 integer (21 binary)
Root relaxation presolved: 43211 rows, 35541 columns, 156071 nonzeros

Root barrier log...

Ordering time: 0.01s

Barrier statistics:
 Dense cols : 21
 AA' NZ     : 2.899e+05
 Factor NZ  : 8.445e+05 (roughly 40 MB of memory)
 Factor Ops : 1.935e+07 (less than 1 second per iteration)
 Threads    : 35

                  Objective                Residual
Iter       Primal          Dual         Primal    Dual     Compl     Time
   0   6.70957349e+05 -2.00635881e+08  5.37e+00 1.35e+02  5.65e+03     1s
   1   1.08470459e+05 -5.23210486e+07  7.22e-01 1.59e-08  7.94e+02     1s
   2   4.39540599e+04 -2.34347642e+07  1.88e-01 6.21e-09  2.76e+02     1s
   3   2.21851682e+04 -2.55636685e+06  5.83e-03 4.00e-09  2.59e+01     1s
   4   1.57293424e+04 -2.98893315e+05  1.51e-04 5.02e-10  3.13e+00     1s
   5   6.76332079e+03 -7.23272734e+04  2.25e-05 1.10e-10  7.86e-01     1s
   6   2.06573810e+03 -1.67982612e+04  3.98e-06 2.30e-11  1.87e-01     1s
   7   7.41893817e+02 -5.69449825e+03  8.23e-07 7.63e-12  6.39e-02     1s
   8   3.35327256e+02 -9.63817347e+02  1.33e-07 1.52e-12  1.29e-02     1s
   9   2.02440561e+02 -4.18898368e+02  5.69e-08 9.09e-13  6.17e-03     1s
  10   1.16271836e+02 -1.67429885e+02  1.60e-08 4.55e-13  2.82e-03     1s
  11   8.77138496e+01 -4.22484401e+01  7.40e-09 9.09e-13  1.29e-03     1s
  12   7.22610423e+01  8.93229684e+00  3.61e-09 9.09e-13  6.29e-04     1s
  13   6.74836228e+01  2.10609110e+01  2.52e-09 9.09e-13  4.61e-04     1s
  14   6.42328020e+01  2.95824150e+01  1.81e-09 9.09e-13  3.44e-04     1s
  15   6.30013229e+01  3.91030797e+01  1.55e-09 4.55e-13  2.37e-04     1s
  16   6.20687633e+01  4.02908897e+01  1.36e-09 4.55e-13  2.16e-04     1s
  17   6.02028958e+01  4.26994891e+01  9.65e-10 2.27e-13  1.74e-04     1s
  18   5.95432988e+01  4.57679918e+01  8.20e-10 4.55e-13  1.37e-04     1s
  19   5.82990089e+01  4.70007871e+01  5.54e-10 2.27e-13  1.12e-04     1s
  20   5.77897588e+01  4.99709608e+01  4.45e-10 4.55e-13  7.77e-05     1s
  21   5.72492808e+01  5.09634861e+01  3.36e-10 9.09e-13  6.24e-05     1s
  22   5.67625690e+01  5.21418448e+01  2.24e-10 4.55e-13  4.59e-05     1s
  23   5.64533401e+01  5.33600428e+01  1.63e-10 4.55e-13  3.07e-05     1s
  24   5.62722555e+01  5.36925815e+01  1.27e-10 9.09e-13  2.56e-05     1s
  25   5.61162137e+01  5.38375587e+01  9.56e-11 4.55e-13  2.26e-05     1s
  26   5.60625384e+01  5.45015709e+01  8.36e-11 9.09e-13  1.55e-05     1s
  27   5.60280744e+01  5.46946890e+01  7.66e-11 4.55e-13  1.32e-05     1s
  28   5.59859854e+01  5.47123607e+01  6.81e-11 4.55e-13  1.26e-05     1s
  29   5.59216146e+01  5.48198095e+01  5.51e-11 4.55e-13  1.09e-05     1s
  30   5.59043684e+01  5.51146630e+01  5.14e-11 4.55e-13  7.84e-06     1s
  31   5.58312815e+01  5.52138271e+01  3.69e-11 2.27e-13  6.13e-06     1s
  32   5.57957131e+01  5.54146400e+01  2.95e-11 2.27e-13  3.78e-06     1s
  33   5.57269931e+01  5.54461290e+01  2.15e-11 4.55e-13  2.79e-06     1s
  34   5.57122282e+01  5.54984774e+01  5.88e-11 4.55e-13  2.12e-06     1s
  35   5.56901910e+01  5.55381680e+01  5.95e-11 9.09e-13  1.51e-06     1s
  36   5.56764780e+01  5.55875545e+01  5.24e-11 9.09e-13  8.83e-07     1s
  37   5.56666918e+01  5.56065169e+01  2.66e-11 4.55e-13  5.98e-07     1s
  38   5.56596253e+01  5.56319633e+01  3.99e-11 4.55e-13  2.75e-07     1s
  39   5.56574028e+01  5.56497417e+01  6.36e-11 9.09e-13  7.61e-08     2s
  40   5.56564533e+01  5.56540818e+01  7.20e-11 1.82e-12  2.36e-08     2s
  41   5.56560740e+01  5.56544515e+01  8.07e-11 9.09e-13  1.61e-08     2s
  42   5.56559453e+01  5.56550150e+01  2.42e-10 9.09e-13  9.24e-09     2s
  43   5.56559167e+01  5.56552521e+01  1.87e-10 4.28e-13  6.60e-09     2s
  44   5.56559049e+01  5.56553400e+01  1.44e-10 9.09e-13  5.61e-09     2s
  45   5.56559012e+01  5.56554599e+01  2.02e-10 2.27e-13  4.38e-09     2s
  46   5.56558960e+01  5.56554787e+01  5.52e-10 4.55e-13  4.14e-09     2s
  47   5.56558855e+01  5.56556333e+01  1.08e-09 1.39e-12  2.51e-09     2s
  48   5.56558826e+01  5.56556528e+01  2.79e-10 9.21e-13  2.28e-09     2s
  49   5.56558827e+01  5.56557435e+01  2.82e-10 1.38e-10  1.38e-09     2s
  50   5.56558826e+01  5.56558337e+01  5.15e-10 2.37e-11  4.86e-10     2s
  51   5.56558818e+01  5.56558817e+01  4.02e-11 9.09e-13  1.53e-12     2s

Barrier solved model in 51 iterations and 1.69 seconds (1.51 work units)
Optimal objective 5.56558818e+01


Root relaxation: objective 5.565588e+01, 6061 iterations, 1.51 seconds (1.29 work units)

    Nodes    |    Current Node    |     Objective Bounds      |     Work
 Expl Unexpl |  Obj  Depth IntInf | Incumbent    BestBd   Gap | It/Node Time

     0     0   55.65588    0   16          -   55.65588      -     -    2s
H    0     0                     102.9924463   55.65588  46.0%     -    3s
     0     0   56.55873    0   13  102.99245   56.55873  45.1%     -    5s
H    0     0                      99.5689256   56.55873  43.2%     -    6s
H    0     0                      92.8357171   56.59273  39.0%     -    7s
     0     0   56.61161    0   13   92.83572   56.61161  39.0%     -    7s
H    0     0                      89.1792290   56.79475  36.3%     -    8s
     0     0   56.79475    0   14   89.17923   56.79475  36.3%     -    8s
     0     0   56.83470    0   14   89.17923   56.83470  36.3%     -    9s
     0     0   56.83708    0   11   89.17923   56.83708  36.3%     -    9s
     0     0   56.84055    0   12   89.17923   56.84055  36.3%     -   10s
     0     0   56.84055    0   12   89.17923   56.84055  36.3%     -   10s
     0     0   56.93710    0   11   89.17923   56.93710  36.2%     -   11s
     0     0   56.93816    0   11   89.17923   56.93816  36.2%     -   12s
     0     0   56.94370    0   11   89.17923   56.94370  36.1%     -   12s
     0     0   56.95122    0   10   89.17923   56.95122  36.1%     -   12s
     0     0   56.95339    0    9   89.17923   56.95339  36.1%     -   12s
     0     0   56.95403    0    9   89.17923   56.95403  36.1%     -   13s
     0     0   56.96814    0    9   89.17923   56.96814  36.1%     -   13s
     0     0   56.96898    0    9   89.17923   56.96898  36.1%     -   14s
     0     0   56.96898    0    9   89.17923   56.96898  36.1%     -   16s
H    0     0                      74.6930510   56.96898  23.7%     -   30s
     0     2   56.96898    0    9   74.69305   56.96898  23.7%     -   30s
    15    32   58.34142    4   14   74.69305   58.34142  21.9%  2405   35s
    63    96   59.16702    6   12   74.69305   58.46913  21.7%  1851   43s
    99   128   60.07635    7   12   74.69305   59.16850  20.8%  1606  108s
H  103   128                      74.6742297   59.16850  20.8%  1599  108s
H  107   128                      73.8416430   59.16850  19.9%  1584  108s
H  109   128                      73.8165128   59.16850  19.8%  1611  108s
   135   146   64.05247    8   13   73.81651   59.16850  19.8%  1597  110s
   207   168   65.17182    9   12   73.81651   59.16850  19.8%  1614  116s
   259   178   67.67100   10   11   73.81651   59.16850  19.8%  1596  140s
   409   215     cutoff   11        73.81651   59.16850  19.8%  1589  147s
   469   225     cutoff   12        73.81651   62.25451  15.7%  1581  150s
   586   245     cutoff    8        73.81651   62.64048  15.1%  1596  156s
   743   249   66.55653   10   11   73.81651   62.64048  15.1%  1565  162s
   812   266   67.95070   10   11   73.81651   62.64048  15.1%  1569  165s
   997   272   68.35237   10   11   73.81651   62.64048  15.1%  1484  233s
  1094   275   68.51040   11   10   73.81651   62.64048  15.1%  1434  367s
  1226   280   68.69516   11   10   73.81651   62.64048  15.1%  1379  390s
  1454   266   69.12132   12    9   73.81651   62.64048  15.1%  1300  397s
  1616   251   71.63312   14    7   73.81651   62.64048  15.1%  1253  400s
  1795   222     cutoff   16        73.81651   63.52967  13.9%  1207  545s
  1978   197     cutoff   13        73.81651   66.20563  10.3%  1165  559s
  2103   141   70.06996    8   13   73.81651   66.20563  10.3%  1134  563s
  2345    81     cutoff    9        73.81651   66.20563  10.3%  1087  567s
  2521    28     cutoff   13        73.81651   68.24823  7.54%  1064  570s
  2777     0     cutoff    9        73.81651   72.82124  1.35%  1022  575s

Cutting planes:
  Gomory: 3
  Implied bound: 3
  MIR: 1024
  Relax-and-lift: 169

Explored 2780 nodes (2860488 simplex iterations) in 575.14 seconds (988.43 work units)
Thread count was 36 (of 36 available processors)

Solution count 8: 73.8165 73.8416 74.6742 ... 102.992

Optimal solution found (tolerance 1.00e-02)
Best objective 7.381651283309e+01, best bound 7.381651283309e+01, gap 0.0000%

Gurobi 9.5.0 (linux64) logging started Fri Dec  8 20:53:40 2023

Set parameter LogFile to value "/lustre1/scratch/348/vsc34888/JointResearch/05.Models/06.Benchmarking/G.Representative_days_based_on_Line_Benefit_NN_OC_fy_2/RTS24_mod1_ByStages_nc300/openStarNet_RTS24_mod1_ByStages_nc300.log"
Set parameter Method to value 2
Set parameter MIPFocus to value 1
Set parameter Presolve to value 2
Set parameter RINS to value 100
Set parameter MIPGap to value 0.01
Set parameter Threads to value 36
Set parameter TimeLimit to value 259200
Set parameter IterationLimit to value 760000000
No parameters matching 'relax_integrality' found
Gurobi Optimizer version 9.5.0 build v9.5.0rc5 (linux64)
Thread count: 36 physical cores, 36 logical processors, using up to 36 threads
Optimize a model with 106858 rows, 72076 columns and 265921 nonzeros
Model fingerprint: 0x52c4326e
Coefficient statistics:
  Matrix range     [1e-03, 7e+02]
  Objective range  [1e+00, 1e+00]
  Bounds range     [3e-05, 3e+00]
  RHS range        [3e-05, 2e+01]
Presolve removed 89417 rows and 40549 columns
Presolve time: 0.13s
Presolved: 17441 rows, 31828 columns, 77530 nonzeros

Ordering time: 0.00s

Barrier statistics:
 AA' NZ     : 4.436e+04
 Factor NZ  : 1.456e+05 (roughly 17 MB of memory)
 Factor Ops : 1.824e+06 (less than 1 second per iteration)
 Threads    : 36

                  Objective                Residual
Iter       Primal          Dual         Primal    Dual     Compl     Time
   0   4.04963612e+06 -6.25195305e+07  5.43e+01 7.14e+01  2.14e+04     0s
   1   2.63178255e+05 -4.80963120e+07  2.94e+00 1.71e-12  1.89e+03     0s
   2   5.70435247e+04 -1.12303411e+07  4.56e-01 3.19e-12  3.02e+02     0s
   3   2.88387397e+04 -2.06304192e+06  5.45e-02 2.12e-12  4.37e+01     0s
   4   2.08175339e+04 -5.37901418e+05  8.64e-03 1.11e-12  1.06e+01     0s
   5   1.20214085e+04 -1.66572313e+05  1.62e-04 9.33e-13  3.32e+00     0s
   6   5.18847846e+03 -3.77993088e+04  2.24e-05 4.85e-13  7.98e-01     0s
   7   1.71045616e+03 -8.55026892e+03  3.83e-06 4.55e-13  1.90e-01     0s
   8   6.64992329e+02 -2.65495033e+03  7.99e-07 2.27e-13  6.16e-02     0s
   9   2.91225425e+02 -7.00422124e+02  7.65e-08 4.55e-13  1.84e-02     0s
  10   1.94466188e+02 -3.63763385e+02  3.20e-08 2.27e-13  1.04e-02     0s
  11   1.25607877e+02 -8.42694955e+01  9.38e-09 2.27e-13  3.90e-03     0s
  12   8.89751427e+01  3.79926248e+01  2.13e-09 2.27e-13  9.46e-04     0s
  13   7.84010838e+01  6.31417481e+01  5.60e-10 2.27e-13  2.83e-04     0s
  14   7.54310792e+01  6.91936425e+01  1.82e-10 2.27e-13  1.16e-04     0s
  15   7.46003282e+01  7.19614950e+01  8.51e-11 2.27e-13  4.90e-05     0s
  16   7.40483178e+01  7.31213290e+01  2.94e-11 2.27e-13  1.72e-05     0s
  17   7.38905747e+01  7.35882113e+01  5.26e-11 1.14e-13  5.61e-06     0s
  18   7.38244332e+01  7.37909100e+01  7.67e-11 2.27e-13  6.22e-07     0s
  19   7.38172028e+01  7.38072502e+01  1.10e-10 2.27e-13  1.85e-07     0s
  20   7.38166564e+01  7.38163445e+01  7.98e-11 2.27e-13  5.79e-09     0s
  21   7.38165131e+01  7.38165123e+01  2.98e-10 2.27e-13  1.59e-11     0s
  22   7.38165128e+01  7.38165128e+01  9.64e-12 2.27e-13  1.59e-14     0s

Barrier solved model in 22 iterations and 0.36 seconds (0.34 work units)
Optimal objective 7.38165128e+01

Crossover log...

    3916 DPushes remaining with DInf 0.0000000e+00                 0s
       0 DPushes remaining with DInf 0.0000000e+00                 0s

     910 PPushes remaining with PInf 0.0000000e+00                 0s
       0 PPushes remaining with PInf 0.0000000e+00                 0s

  Push phase complete: Pinf 0.0000000e+00, Dinf 1.1503692e-13      0s

Iteration    Objective       Primal Inf.    Dual Inf.      Time
     979    7.3816513e+01   0.000000e+00   0.000000e+00      0s

Use crossover to convert LP symmetric solution to basic solution...
Crossover log...

       0 DPushes remaining with DInf 0.0000000e+00                 0s

     692 PPushes remaining with PInf 0.0000000e+00                 0s
       0 PPushes remaining with PInf 0.0000000e+00                 0s

  Push phase complete: Pinf 0.0000000e+00, Dinf 9.3456009e-14      0s

Iteration    Objective       Primal Inf.    Dual Inf.      Time
    1675    7.3816513e+01   0.000000e+00   0.000000e+00      1s

Solved in 1675 iterations and 0.53 seconds (0.45 work units)
Optimal objective  7.381651283e+01
